c WARNING: for repeatability, setting FPU to use double precision
d VARIABLES            26911        
d CONSTRAINTS          88914        
c ============================[ Problem Statistics ]=============================
c |                                                                             |
c |  Number of variables:         26911                                         |
c |  Number of clauses:           88914                                         |
c |  Parse time:                   0.01 s                                       |
c |                                                                             |
c ============================[ Search Statistics ]==============================
c | Conflicts |          ORIGINAL         |          LEARNT          | Progress |
c |           |    Vars  Clauses Literals |    Limit  Clauses Lit/Cl |          |
c ===============================================================================
c |       100 |   16718    61720   155478 |    22630      100     60 | 37.877 % |
c |       250 |   16718    61720   155478 |    24893      250     46 | 37.877 % |
c |       475 |   16718    61720   155478 |    27383      475     39 | 37.877 % |
c |       812 |   16715    61709   155451 |    30121      811     42 | 37.888 % |
c |      1318 |   16715    61709   155451 |    33133     1317     43 | 37.888 % |
c |      2077 |   16709    61687   155397 |    36446     2075     49 | 37.910 % |
c |      3216 |   16709    61687   155397 |    40091     3214     54 | 37.910 % |
c |      4924 |   16709    61687   155397 |    44100     4922     58 | 37.910 % |
c |      7486 |   16709    61687   155397 |    48510     7484     75 | 37.910 % |
c |     11330 |   16709    61687   155397 |    53361    11328     82 | 37.910 % |
c |     17096 |   16709    61687   155397 |    58698    17094     78 | 37.910 % |
c |     25745 |   16709    61687   155397 |    64567    25743     74 | 37.910 % |
c |     38719 |   16709    61687   155397 |    71024    38717     71 | 37.910 % |
c |     58180 |   16709    61687   155397 |    78127    58178     70 | 37.910 % |
c |     87372 |   16709    61687   155397 |    85939    87370     67 | 37.910 % |
c |    131161 |   16709    61687   155397 |    94533    50800     62 | 37.910 % |
c |    196845 |   16709    61687   155397 |   103987    30528     57 | 37.910 % |
c |    295371 |   16709    61687   155397 |   114386    36847     46 | 37.910 % |
c |    443160 |   16709    61687   155397 |   125824    81313     45 | 37.910 % |
c |    664843 |   16709    61687   155397 |   138407    67275     46 | 37.910 % |
c |    997368 |   16678    61563   155087 |   152247   123329     45 | 38.025 % |
c ===============================================================================
c restarts              : 2046
c conflicts             : 1023527        (5123 /sec)
c decisions             : 1465280        (0.00 % random) (7334 /sec)
c propagations          : 739994024      (3703813 /sec)
c conflict literals     : 54369571       (52.83 % deleted)
d RESTARTS             2046
d FAILURES             1023527      
d NODES                1465280      
d BACKTRACKS           1465280      
d PROPAGATIONS         739994024    
d NOGOODSIZE           53.12 
d MEMORY               124.00 
d TIME                 199.792 

s UNSATISFIABLE
